WARNING: for repeatability, setting FPU to use double precision
============================[ Problem Statistics ]=============================
|                                                                             |
|  Number of variables:            50                                         |
|  Number of clauses:             218                                         |
|  Parse time:                   0.00 s                                       |
|                                                                             |
============================[ Search Statistics ]==============================
| Conflicts |          ORIGINAL         |          LEARNT          | Progress |
|           |    Vars  Clauses Literals |    Limit  Clauses Lit/Cl |          |
===============================================================================
===============================================================================
restarts              : 1
conflicts             : 76             (50431 /sec)
decisions             : 82             (0.00 % random) (54413 /sec)
propagations          : 985            (653616 /sec)
conflict literals     : 285            (15.93 % deleted)
Memory used           : 20.00 MB
CPU time              : 0.001507 s

UNSATISFIABLE
